DIMACS_lns/graph-1000-349.col
p edge 1000 1840
e 3 414
e 3 828
e 3 384
e 3 202
e 4 722
e 4 837
e 4 608
e 4 108
e 5 572
e 5 956
e 5 180
e 5 411
e 5 89
e 5 47
e 5 332
e 6 572
e 6 239
e 6 553
e 6 774
e 7 621
e 7 114
e 7 991
e 7 264
e 7 290
e 7 291
e 8 748
e 8 23
e 8 335
e 8 356
e 9 287
e 9 805
e 9 903
e 9 244
e 11 145
e 11 194
e 11 891
e 11 228
e 11 822
e 11 679
e 12 350
e 12 782
e 12 432
e 14 480
e 14 755
e 14 570
e 15 752
e 15 236
e 15 327
e 15 814
e 15 425
e 16 931
e 16 81
e 16 571
e 16 125
e 16 456
e 16 957
e 16 104
e 17 480
e 17 597
e 17 900
e 17 568
e 17 243
e 17 951
e 17 585
e 18 989
e 18 162
e 18 579
e 18 293
e 20 596
e 20 50
e 20 406
e 20 149
e 22 705
e 22 922
e 22 287
e 22 122
e 23 373
e 23 493
e 23 335
e 24 371
e 24 470
e 24 640
e 25 221
e 25 423
e 25 135
e 25 419
e 25 363
e 25 484
e 26 185
e 26 370
e 26 629
e 26 850
e 26 212
e 26 980
e 26 476
e 27 527
e 27 523
e 27 34
e 27 869
e 27 411
e 28 862
e 28 844
e 28 913
e 28 885
e 29 418
e 29 504
e 29 1000
e 29 393
e 29 795
e 29 31
e 30 571
e 30 762
e 30 504
e 30 316
e 30 685
e 31 989
e 31 638
e 31 693
e 33 773
e 33 194
e 33 947
e 33 768
e 33 66
e 33 262
e 33 378
e 33 878
e 34 792
e 34 249
e 35 396
e 35 853
e 35 811
e 35 49
e 36 192
e 36 647
e 36 818
e 36 406
e 40 752
e 40 416
e 40 162
e 40 843
e 41 150
e 41 61
e 41 666
e 41 191
e 41 371
e 41 184
e 43 211
e 43 277
e 43 774
e 43 988
e 43 489
e 43 386
e 43 645
e 44 476
e 44 798
e 44 407
e 44 584
e 46 635
e 46 371
e 46 412
e 46 338
e 47 542
e 47 122
e 48 150
e 48 646
e 48 343
e 48 336
e 48 969
e 49 978
e 49 393
e 49 390
e 50 395
e 50 534
e 51 231
e 51 600
e 51 664
e 53 290
e 53 771
e 53 79
e 53 510
e 53 186
e 53 970
e 53 933
e 56 310
e 56 970
e 56 990
e 56 320
e 56 892
e 56 668
e 56 849
e 57 901
e 57 542
e 57 552
e 57 97
e 58 333
e 58 101
e 58 959
e 58 370
e 58 136
e 58 674
e 58 807
e 58 704
e 60 448
e 60 162
e 60 522
e 61 140
e 61 402
e 62 521
e 62 909
e 62 425
e 62 439
e 62 978
e 62 490
e 62 823
e 63 170
e 63 215
e 63 457
e 63 214
e 64 795
e 64 524
e 64 710
e 66 101
e 66 289
e 66 777
e 66 590
e 66 219
e 66 995
e 66 463
e 67 531
e 67 245
e 67 96
e 67 825
e 67 924
e 70 113
e 70 997
e 70 831
e 72 588
e 72 842
e 72 148
e 76 224
e 76 258
e 76 710
e 76 351
e 76 217
e 77 219
e 77 244
e 77 182
e 77 296
e 78 732
e 78 386
e 78 523
e 78 600
e 78 125
e 78 893
e 79 237
e 79 596
e 80 259
e 80 739
e 80 789
e 80 919
e 80 106
e 81 869
e 81 167
e 81 510
e 81 241
e 81 243
e 82 356
e 82 865
e 82 193
e 84 421
e 84 520
e 84 465
e 84 435
e 84 472
e 84 801
e 84 849
e 84 168
e 84 912
e 86 698
e 86 777
e 86 842
e 86 801
e 86 94
e 86 689
e 86 524
e 87 882
e 87 155
e 87 240
e 87 828
e 87 167
e 88 444
e 88 434
e 88 893
e 89 616
e 89 480
e 92 577
e 92 769
e 92 578
e 92 804
e 92 641
e 92 548
e 93 652
e 93 324
e 93 133
e 94 178
e 94 298
e 94 705
e 94 735
e 94 800
e 94 678
e 94 968
e 96 700
e 96 779
e 97 749
e 97 973
e 98 941
e 98 308
e 98 599
e 98 186
e 98 378
e 98 482
e 98 352
e 99 522
e 99 872
e 99 457
e 99 797
e 100 885
e 100 102
e 100 197
e 100 227
e 101 902
e 101 320
e 101 118
e 101 930
e 101 721
e 102 567
e 102 496
e 102 944
e 102 999
e 102 806
e 102 776
e 102 244
e 103 183
e 103 403
e 103 933
e 103 856
e 104 130
e 104 725
e 104 947
e 104 809
e 106 166
e 106 247
e 106 947
e 106 305
e 106 568
e 106 289
e 108 358
e 108 482
e 108 168
e 108 298
e 108 310
e 109 721
e 109 728
e 109 124
e 110 239
e 110 969
e 110 622
e 110 219
e 110 662
e 112 218
e 112 930
e 112 824
e 112 245
e 113 307
e 113 972
e 113 791
e 113 533
e 113 755
e 113 465
e 113 454
e 113 371
e 113 696
e 113 221
e 114 376
e 114 528
e 114 646
e 114 321
e 116 662
e 116 339
e 116 243
e 116 946
e 116 693
e 116 165
e 118 784
e 118 559
e 118 735
e 118 412
e 118 435
e 118 258
e 118 664
e 120 277
e 120 395
e 120 193
e 120 265
e 121 122
e 121 416
e 121 928
e 121 648
e 121 837
e 121 319
e 121 583
e 122 305
e 122 274
e 122 610
e 123 564
e 123 221
e 123 705
e 124 576
e 124 425
e 124 241
e 124 508
e 124 915
e 125 795
e 125 723
e 125 536
e 125 841
e 125 477
e 128 302
e 128 531
e 128 447
e 128 352
e 128 193
e 129 858
e 129 640
e 129 281
e 130 361
e 130 902
e 132 222
e 132 950
e 132 526
e 132 831
e 132 890
e 133 941
e 133 390
e 133 638
e 134 237
e 134 608
e 134 621
e 135 734
e 135 388
e 136 299
e 136 765
e 138 708
e 138 750
e 138 629
e 139 518
e 139 759
e 139 221
e 140 943
e 140 750
e 140 390
e 140 362
e 144 316
e 144 221
e 144 898
e 144 486
e 144 853
e 144 738
e 144 996
e 145 277
e 145 322
e 145 617
e 146 206
e 146 385
e 146 256
e 146 252
e 146 994
e 148 595
e 148 164
e 148 447
e 149 292
e 149 647
e 149 337
e 149 443
e 149 677
e 150 765
e 153 372
e 153 708
e 153 286
e 155 301
e 155 289
e 155 456
e 155 903
e 156 597
e 156 685
e 156 615
e 156 765
e 158 475
e 158 507
e 158 607
e 159 295
e 159 403
e 159 998
e 159 280
e 161 800
e 161 469
e 161 164
e 161 305
e 161 829
e 161 603
e 161 223
e 161 440
e 162 241
e 162 551
e 162 269
e 164 440
e 164 950
e 164 359
e 165 598
e 165 380
e 165 554
e 166 599
e 166 203
e 166 575
e 166 668
e 167 449
e 167 196
e 167 850
e 167 899
e 168 674
e 170 334
e 170 341
e 170 222
e 170 553
e 170 761
e 170 858
e 170 755
e 171 303
e 171 640
e 171 296
e 171 890
e 172 508
e 172 512
e 172 394
e 172 467
e 172 310
e 173 756
e 173 700
e 173 595
e 173 295
e 173 185
e 175 1000
e 175 652
e 175 514
e 175 226
e 175 522
e 178 210
e 178 202
e 178 356
e 180 402
e 180 915
e 182 523
e 182 877
e 182 307
e 182 584
e 183 635
e 183 493
e 184 797
e 184 490
e 184 819
e 184 886
e 184 942
e 184 512
e 184 807
e 185 305
e 185 424
e 185 677
e 185 791
e 185 507
e 186 439
e 187 896
e 187 920
e 187 936
e 187 990
e 188 652
e 188 869
e 188 626
e 191 668
e 191 269
e 191 475
e 191 226
e 192 867
e 192 608
e 192 248
e 192 661
e 192 376
e 192 768
e 193 418
e 193 561
e 194 533
e 194 696
e 194 226
e 194 887
e 194 247
e 195 417
e 195 969
e 195 764
e 195 800
e 196 242
e 196 797
e 196 650
e 196 927
e 197 646
e 197 797
e 197 875
e 198 267
e 198 573
e 198 409
e 198 336
e 200 393
e 200 298
e 200 953
e 200 836
e 200 740
e 201 335
e 201 298
e 201 621
e 201 549
e 201 263
e 201 800
e 202 989
e 202 898
e 203 725
e 203 256
e 203 944
e 203 548
e 203 257
e 205 781
e 205 758
e 205 351
e 205 580
e 206 557
e 206 920
e 206 929
e 208 914
e 208 365
e 208 641
e 208 351
e 208 303
e 210 325
e 210 564
e 210 630
e 210 984
e 210 309
e 210 914
e 211 914
e 211 485
e 212 297
e 212 650
e 212 259
e 212 349
e 213 656
e 213 547
e 213 782
e 213 470
e 213 671
e 213 694
e 213 704
e 213 686
e 214 257
e 214 928
e 214 370
e 214 309
e 214 552
e 215 299
e 215 421
e 215 386
e 215 554
e 215 538
e 217 883
e 217 322
e 217 906
e 217 676
e 218 779
e 218 869
e 218 482
e 218 591
e 218 845
e 219 578
e 219 761
e 220 815
e 220 268
e 220 828
e 221 820
e 221 948
e 221 665
e 222 954
e 222 640
e 223 855
e 223 850
e 223 859
e 224 370
e 224 534
e 224 269
e 224 705
e 224 237
e 224 779
e 225 573
e 225 842
e 225 537
e 226 591
e 226 762
e 226 308
e 226 651
e 226 740
e 227 385
e 227 702
e 227 324
e 228 576
e 228 488
e 228 531
e 228 450
e 229 370
e 229 929
e 229 454
e 229 702
e 229 249
e 231 439
e 231 782
e 231 463
e 231 600
e 231 252
e 233 517
e 233 657
e 233 240
e 234 937
e 234 391
e 234 660
e 234 943
e 236 983
e 236 984
e 236 696
e 237 726
e 237 662
e 237 610
e 238 462
e 238 968
e 238 679
e 238 494
e 238 396
e 239 943
e 239 438
e 240 271
e 240 706
e 241 333
e 241 699
e 242 265
e 242 774
e 242 560
e 242 572
e 243 406
e 243 894
e 244 808
e 244 537
e 244 322
e 245 485
e 245 835
e 245 524
e 246 606
e 246 542
e 246 872
e 247 762
e 247 953
e 247 999
e 247 886
e 247 829
e 248 783
e 248 664
e 248 525
e 248 844
e 249 496
e 249 353
e 249 278
e 249 259
e 251 864
e 251 494
e 251 361
e 251 314
e 251 637
e 251 307
e 252 689
e 252 578
e 253 937
e 253 675
e 253 631
e 253 850
e 253 297
e 255 399
e 255 510
e 255 932
e 255 913
e 256 275
e 256 897
e 256 814
e 256 464
e 256 490
e 257 801
e 257 694
e 257 998
e 257 324
e 258 341
e 258 468
e 258 701
e 258 449
e 258 279
e 258 532
e 258 654
e 258 496
e 259 314
e 259 984
e 259 766
e 261 580
e 261 438
e 261 836
e 261 626
e 261 635
e 262 666
e 262 575
e 262 305
e 262 276
e 262 942
e 262 527
e 263 537
e 263 841
e 264 629
e 264 461
e 264 305
e 264 772
e 265 804
e 265 977
e 265 790
e 265 982
e 265 529
e 265 764
e 265 267
e 267 464
e 267 982
e 267 706
e 267 462
e 268 382
e 268 572
e 269 766
e 271 818
e 271 790
e 271 485
e 271 486
e 271 585
e 273 779
e 273 391
e 273 585
e 273 411
e 273 759
e 274 937
e 274 365
e 274 904
e 274 926
e 275 295
e 275 978
e 276 707
e 276 967
e 277 917
e 277 996
e 277 946
e 277 606
e 277 385
e 277 569
e 277 916
e 277 1000
e 278 417
e 278 825
e 278 334
e 279 286
e 279 991
e 280 631
e 280 379
e 280 616
e 280 411
e 280 660
e 281 914
e 281 808
e 281 511
e 281 678
e 282 581
e 282 662
e 282 408
e 283 596
e 283 840
e 283 295
e 284 545
e 284 791
e 284 651
e 286 821
e 286 443
e 286 928
e 286 914
e 286 703
e 287 781
e 287 298
e 288 422
e 288 682
e 288 521
e 288 701
e 289 846
e 289 423
e 289 540
e 290 769
e 291 418
e 291 335
e 291 422
e 292 836
e 292 428
e 292 391
e 293 845
e 293 732
e 295 808
e 295 901
e 296 835
e 296 590
e 297 817
e 297 421
e 298 402
e 298 766
e 298 584
e 298 886
e 299 916
e 299 329
e 299 892
e 301 674
e 301 780
e 301 766
e 302 752
e 302 945
e 303 719
e 303 975
e 303 656
e 303 993
e 305 422
e 305 975
e 305 721
e 305 695
e 307 456
e 307 352
e 307 804
e 307 444
e 308 603
e 308 679
e 308 893
e 309 602
e 310 995
e 310 959
e 312 664
e 312 581
e 312 809
e 312 649
e 312 993
e 314 526
e 314 403
e 314 347
e 316 614
e 316 577
e 319 902
e 319 334
e 319 865
e 319 518
e 320 674
e 320 402
e 321 755
e 321 556
e 322 810
e 322 845
e 323 769
e 323 406
e 323 602
e 323 713
e 323 645
e 324 520
e 324 947
e 324 578
e 325 821
e 325 370
e 325 984
e 326 544
e 326 898
e 326 373
e 327 446
e 327 813
e 328 831
e 328 858
e 328 564
e 328 884
e 329 392
e 329 660
e 329 422
e 330 695
e 330 997
e 330 846
e 330 752
e 332 533
e 332 645
e 332 389
e 333 966
e 334 849
e 334 596
e 335 717
e 335 656
e 335 451
e 336 762
e 336 900
e 336 691
e 336 772
e 336 694
e 336 920
e 336 616
e 337 411
e 337 453
e 338 451
e 338 482
e 339 994
e 339 574
e 339 371
e 340 447
e 340 816
e 340 380
e 341 862
e 341 594
e 343 654
e 343 583
e 343 839
e 343 990
e 347 444
e 347 857
e 349 924
e 349 969
e 349 486
e 349 351
e 350 903
e 350 735
e 350 371
e 352 944
e 352 476
e 352 783
e 353 817
e 353 597
e 353 929
e 356 401
e 356 567
e 356 792
e 356 633
e 358 378
e 358 658
e 359 724
e 359 891
e 359 933
e 359 814
e 359 519
e 359 572
e 361 788
e 361 579
e 361 967
e 362 884
e 362 369
e 363 641
e 363 637
e 364 748
e 364 626
e 364 689
e 364 946
e 364 629
e 364 475
e 364 528
e 364 470
e 365 604
e 369 560
e 369 555
e 369 926
e 369 831
e 370 411
e 370 484
e 370 585
e 370 916
e 370 376
e 370 670
e 370 623
e 371 630
e 371 601
e 371 664
e 371 970
e 371 502
e 371 529
e 371 717
e 372 948
e 372 584
e 372 937
e 373 654
e 374 983
e 374 422
e 374 936
e 376 585
e 376 490
e 376 738
e 376 909
e 376 658
e 377 395
e 377 439
e 377 425
e 377 721
e 377 816
e 378 806
e 379 686
e 379 841
e 380 973
e 382 475
e 382 770
e 382 632
e 384 973
e 384 516
e 385 506
e 388 789
e 388 452
e 389 452
e 389 628
e 389 664
e 390 574
e 391 444
e 391 532
e 391 654
e 391 929
e 392 892
e 392 413
e 392 991
e 393 706
e 393 456
e 394 988
e 394 680
e 394 744
e 394 451
e 395 898
e 395 723
e 395 654
e 396 911
e 396 794
e 396 425
e 396 862
e 396 401
e 399 508
e 399 575
e 399 824
e 401 914
e 402 600
e 402 450
e 404 819
e 404 773
e 404 813
e 404 477
e 404 846
e 406 855
e 407 561
e 407 867
e 408 511
e 408 490
e 409 640
e 409 472
e 409 719
e 409 834
e 411 824
e 411 595
e 411 461
e 412 618
e 413 693
e 413 618
e 413 895
e 413 674
e 413 657
e 414 950
e 414 925
e 414 577
e 414 477
e 414 975
e 415 555
e 415 638
e 415 867
e 415 793
e 416 725
e 416 696
e 416 517
e 416 597
e 416 984
e 416 871
e 417 937
e 417 728
e 418 820
e 418 705
e 419 784
e 419 980
e 420 777
e 420 462
e 420 755
e 421 568
e 422 622
e 423 452
e 423 999
e 423 765
e 423 804
e 424 457
e 424 695
e 424 753
e 425 911
e 425 560
e 425 783
e 428 983
e 428 940
e 429 868
e 429 445
e 429 782
e 432 894
e 432 841
e 433 798
e 433 780
e 433 914
e 433 805
e 433 632
e 433 448
e 434 877
e 434 792
e 435 977
e 435 641
e 438 660
e 438 738
e 438 730
e 439 567
e 439 535
e 440 883
e 440 796
e 443 692
e 443 599
e 443 496
e 443 614
e 444 957
e 444 654
e 444 496
e 445 925
e 445 705
e 445 611
e 446 887
e 446 821
e 447 909
e 448 874
e 448 922
e 448 734
e 449 677
e 449 713
e 449 551
e 450 766
e 451 682
e 451 1000
e 451 995
e 451 484
e 451 916
e 451 633
e 451 768
e 452 658
e 453 959
e 453 547
e 454 800
e 454 883
e 454 723
e 455 748
e 455 990
e 455 753
e 455 509
e 456 662
e 461 834
e 461 779
e 461 482
e 462 999
e 463 551
e 463 658
e 463 857
e 464 875
e 464 773
e 465 735
e 465 883
e 465 695
e 465 485
e 465 821
e 467 966
e 467 559
e 467 637
e 467 576
e 468 573
e 468 531
e 468 521
e 469 674
e 469 617
e 470 899
e 470 741
e 470 794
e 470 554
e 472 547
e 476 787
e 477 675
e 477 904
e 480 794
e 480 579
e 480 985
e 480 611
e 482 585
e 484 893
e 485 551
e 486 581
e 486 896
e 487 646
e 487 823
e 487 571
e 487 991
e 487 594
e 487 839
e 488 905
e 488 980
e 488 879
e 488 536
e 489 984
e 489 857
e 490 574
e 490 725
e 490 879
e 491 793
e 491 988
e 491 787
e 493 884
e 493 650
e 494 741
e 496 549
e 496 856
e 496 538
e 496 633
e 496 675
e 496 890
e 497 561
e 497 539
e 497 898
e 497 513
e 497 703
e 502 724
e 502 783
e 504 515
e 506 780
e 506 814
e 506 585
e 506 601
e 507 627
e 507 857
e 507 751
e 507 825
e 508 611
e 508 891
e 509 739
e 509 954
e 509 539
e 509 774
e 510 751
e 511 927
e 511 641
e 512 728
e 512 541
e 512 932
e 513 902
e 513 595
e 513 761
e 513 752
e 513 537
e 514 808
e 514 517
e 515 936
e 515 983
e 515 661
e 516 969
e 516 610
e 518 985
e 519 717
e 519 564
e 520 645
e 520 646
e 520 870
e 523 901
e 524 557
e 524 950
e 525 535
e 525 969
e 526 906
e 526 568
e 526 801
e 527 549
e 527 770
e 527 651
e 528 723
e 528 865
e 528 924
e 529 533
e 529 684
e 531 909
e 532 899
e 532 779
e 532 679
e 533 587
e 533 864
e 534 893
e 535 787
e 535 668
e 535 545
e 536 618
e 536 930
e 536 829
e 537 895
e 537 735
e 538 900
e 538 989
e 538 632
e 538 627
e 539 600
e 539 587
e 540 890
e 540 790
e 541 936
e 541 942
e 541 891
e 541 671
e 542 943
e 544 607
e 544 926
e 544 814
e 544 705
e 545 630
e 547 605
e 547 649
e 547 624
e 548 755
e 549 603
e 551 957
e 552 810
e 552 996
e 552 608
e 552 895
e 552 777
e 553 671
e 554 819
e 554 932
e 555 811
e 556 699
e 556 562
e 557 945
e 557 637
e 559 872
e 559 905
e 559 606
e 560 922
e 560 741
e 561 915
e 562 853
e 562 708
e 562 924
e 564 576
e 565 1000
e 565 628
e 565 647
e 567 764
e 567 784
e 568 874
e 568 629
e 568 834
e 569 912
e 569 725
e 569 692
e 570 725
e 570 997
e 570 924
e 570 867
e 571 722
e 572 877
e 572 633
e 572 627
e 573 688
e 573 831
e 574 929
e 574 782
e 575 664
e 576 895
e 576 739
e 577 792
e 577 933
e 577 969
e 578 862
e 579 914
e 579 776
e 579 618
e 580 978
e 580 850
e 580 762
e 581 756
e 581 708
e 583 594
e 584 878
e 584 996
e 587 657
e 588 700
e 588 761
e 588 956
e 590 809
e 591 601
e 591 665
e 594 985
e 595 637
e 597 860
e 597 705
e 597 879
e 598 701
e 598 720
e 599 962
e 599 769
e 602 794
e 603 808
e 604 626
e 604 648
e 605 730
e 605 616
e 605 675
e 607 788
e 607 864
e 607 875
e 608 926
e 608 614
e 608 781
e 608 858
e 610 724
e 610 980
e 611 962
e 611 808
e 614 927
e 615 730
e 615 951
e 616 846
e 616 816
e 617 788
e 618 984
e 621 858
e 621 749
e 621 973
e 622 946
e 623 696
e 623 635
e 624 798
e 624 710
e 624 766
e 626 693
e 627 684
e 628 707
e 628 972
e 629 931
e 629 874
e 629 985
e 629 968
e 631 990
e 633 968
e 633 653
e 633 796
e 633 781
e 633 670
e 635 887
e 637 807
e 637 781
e 638 694
e 638 818
e 638 946
e 638 741
e 640 740
e 640 676
e 640 871
e 640 780
e 645 723
e 646 872
e 646 671
e 646 691
e 647 721
e 648 941
e 648 901
e 649 838
e 649 863
e 650 857
e 650 886
e 650 996
e 651 675
e 651 781
e 652 701
e 652 935
e 652 854
e 653 788
e 653 990
e 653 975
e 654 917
e 656 996
e 657 825
e 658 969
e 658 829
e 658 692
e 658 784
e 661 708
e 662 665
e 662 868
e 664 984
e 665 898
e 665 919
e 666 941
e 666 879
e 666 685
e 668 808
e 670 700
e 671 916
e 671 941
e 674 864
e 676 924
e 676 929
e 677 899
e 677 905
e 677 953
e 678 721
e 680 696
e 680 951
e 682 758
e 682 947
e 682 817
e 682 916
e 684 946
e 685 839
e 685 732
e 685 935
e 686 700
e 686 793
e 688 723
e 688 725
e 689 817
e 689 822
e 691 928
e 691 968
e 692 917
e 692 887
e 693 936
e 693 734
e 694 844
e 696 943
e 698 782
e 698 922
e 699 893
e 699 863
e 699 862
e 700 906
e 700 857
e 701 846
e 702 856
e 703 902
e 704 856
e 705 956
e 705 853
e 706 911
e 706 774
e 707 936
e 707 756
e 707 763
e 710 893
e 710 843
e 713 882
e 717 892
e 719 829
e 719 950
e 720 895
e 720 793
e 722 764
e 722 946
e 724 823
e 724 859
e 725 965
e 726 966
e 726 805
e 726 932
e 726 853
e 728 858
e 732 868
e 734 863
e 735 749
e 735 836
e 736 771
e 736 862
e 736 980
e 736 849
e 738 919
e 739 744
e 744 844
e 748 819
e 750 796
e 750 763
e 751 954
e 752 940
e 753 792
e 755 894
e 756 871
e 756 869
e 758 782
e 759 957
e 759 998
e 759 982
e 762 839
e 762 962
e 763 811
e 764 906
e 764 765
e 766 872
e 768 897
e 768 838
e 768 940
e 769 896
e 769 900
e 770 816
e 771 967
e 771 936
e 772 916
e 772 878
e 776 953
e 776 972
e 777 991
e 779 878
e 780 930
e 781 892
e 784 948
e 784 913
e 784 956
e 788 860
e 788 980
e 788 794
e 789 792
e 790 863
e 791 932
e 792 931
e 796 942
e 801 879
e 801 925
e 804 809
e 805 988
e 805 902
e 806 814
e 808 809
e 810 960
e 813 845
e 813 856
e 814 900
e 814 840
e 814 883
e 815 819
e 815 935
e 816 865
e 816 935
e 816 985
e 820 965
e 820 878
e 821 972
e 821 822
e 823 996
e 824 940
e 825 915
e 825 973
e 828 925
e 831 912
e 834 879
e 835 965
e 837 862
e 838 893
e 839 922
e 839 980
e 840 878
e 842 969
e 843 854
e 844 867
e 845 872
e 853 912
e 854 917
e 854 975
e 855 977
e 859 890
e 860 875
e 864 904
e 868 903
e 870 993
e 870 886
e 871 903
e 877 897
e 882 960
e 885 1000
e 886 994
e 886 935
e 890 932
e 891 956
e 898 913
e 899 941
e 900 913
e 901 915
e 902 932
e 903 966
e 904 984
e 904 998
e 909 967
e 911 930
e 912 945
e 914 940
e 914 966
e 920 944
e 920 957
e 922 929
e 926 960
e 927 942
e 927 978
e 930 932
e 933 990
e 933 940
e 933 980
e 935 936
e 946 968
e 962 969
e 962 993
e 967 996
e 978 1000
e 982 984
e 994 998
