txt_Ins/graph-1000-349.txt
n 1000
e 2 413
e 2 827
e 2 383
e 2 201
e 3 721
e 3 836
e 3 607
e 3 107
e 4 571
e 4 955
e 4 179
e 4 410
e 4 88
e 4 46
e 4 331
e 5 571
e 5 238
e 5 552
e 5 773
e 6 620
e 6 113
e 6 990
e 6 263
e 6 289
e 6 290
e 7 747
e 7 22
e 7 334
e 7 355
e 8 286
e 8 804
e 8 902
e 8 243
e 10 144
e 10 193
e 10 890
e 10 227
e 10 821
e 10 678
e 11 349
e 11 781
e 11 431
e 13 479
e 13 754
e 13 569
e 14 751
e 14 235
e 14 326
e 14 813
e 14 424
e 15 930
e 15 80
e 15 570
e 15 124
e 15 455
e 15 956
e 15 103
e 16 479
e 16 596
e 16 899
e 16 567
e 16 242
e 16 950
e 16 584
e 17 988
e 17 161
e 17 578
e 17 292
e 19 595
e 19 49
e 19 405
e 19 148
e 21 704
e 21 921
e 21 286
e 21 121
e 22 372
e 22 492
e 22 334
e 23 370
e 23 469
e 23 639
e 24 220
e 24 422
e 24 134
e 24 418
e 24 362
e 24 483
e 25 184
e 25 369
e 25 628
e 25 849
e 25 211
e 25 979
e 25 475
e 26 526
e 26 522
e 26 33
e 26 868
e 26 410
e 27 861
e 27 843
e 27 912
e 27 884
e 28 417
e 28 503
e 28 999
e 28 392
e 28 794
e 28 30
e 29 570
e 29 761
e 29 503
e 29 315
e 29 684
e 30 988
e 30 637
e 30 692
e 32 772
e 32 193
e 32 946
e 32 767
e 32 65
e 32 261
e 32 377
e 32 877
e 33 791
e 33 248
e 34 395
e 34 852
e 34 810
e 34 48
e 35 191
e 35 646
e 35 817
e 35 405
e 39 751
e 39 415
e 39 161
e 39 842
e 40 149
e 40 60
e 40 665
e 40 190
e 40 370
e 40 183
e 42 210
e 42 276
e 42 773
e 42 987
e 42 488
e 42 385
e 42 644
e 43 475
e 43 797
e 43 406
e 43 583
e 45 634
e 45 370
e 45 411
e 45 337
e 46 541
e 46 121
e 47 149
e 47 645
e 47 342
e 47 335
e 47 968
e 48 977
e 48 392
e 48 389
e 49 394
e 49 533
e 50 230
e 50 599
e 50 663
e 52 289
e 52 770
e 52 78
e 52 509
e 52 185
e 52 969
e 52 932
e 55 309
e 55 969
e 55 989
e 55 319
e 55 891
e 55 667
e 55 848
e 56 900
e 56 541
e 56 551
e 56 96
e 57 332
e 57 100
e 57 958
e 57 369
e 57 135
e 57 673
e 57 806
e 57 703
e 59 447
e 59 161
e 59 521
e 60 139
e 60 401
e 61 520
e 61 908
e 61 424
e 61 438
e 61 977
e 61 489
e 61 822
e 62 169
e 62 214
e 62 456
e 62 213
e 63 794
e 63 523
e 63 709
e 65 100
e 65 288
e 65 776
e 65 589
e 65 218
e 65 994
e 65 462
e 66 530
e 66 244
e 66 95
e 66 824
e 66 923
e 69 112
e 69 996
e 69 830
e 71 587
e 71 841
e 71 147
e 75 223
e 75 257
e 75 709
e 75 350
e 75 216
e 76 218
e 76 243
e 76 181
e 76 295
e 77 731
e 77 385
e 77 522
e 77 599
e 77 124
e 77 892
e 78 236
e 78 595
e 79 258
e 79 738
e 79 788
e 79 918
e 79 105
e 80 868
e 80 166
e 80 509
e 80 240
e 80 242
e 81 355
e 81 864
e 81 192
e 83 420
e 83 519
e 83 464
e 83 434
e 83 471
e 83 800
e 83 848
e 83 167
e 83 911
e 85 697
e 85 776
e 85 841
e 85 800
e 85 93
e 85 688
e 85 523
e 86 881
e 86 154
e 86 239
e 86 827
e 86 166
e 87 443
e 87 433
e 87 892
e 88 615
e 88 479
e 91 576
e 91 768
e 91 577
e 91 803
e 91 640
e 91 547
e 92 651
e 92 323
e 92 132
e 93 177
e 93 297
e 93 704
e 93 734
e 93 799
e 93 677
e 93 967
e 95 699
e 95 778
e 96 748
e 96 972
e 97 940
e 97 307
e 97 598
e 97 185
e 97 377
e 97 481
e 97 351
e 98 521
e 98 871
e 98 456
e 98 796
e 99 884
e 99 101
e 99 196
e 99 226
e 100 901
e 100 319
e 100 117
e 100 929
e 100 720
e 101 566
e 101 495
e 101 943
e 101 998
e 101 805
e 101 775
e 101 243
e 102 182
e 102 402
e 102 932
e 102 855
e 103 129
e 103 724
e 103 946
e 103 808
e 105 165
e 105 246
e 105 946
e 105 304
e 105 567
e 105 288
e 107 357
e 107 481
e 107 167
e 107 297
e 107 309
e 108 720
e 108 727
e 108 123
e 109 238
e 109 968
e 109 621
e 109 218
e 109 661
e 111 217
e 111 929
e 111 823
e 111 244
e 112 306
e 112 971
e 112 790
e 112 532
e 112 754
e 112 464
e 112 453
e 112 370
e 112 695
e 112 220
e 113 375
e 113 527
e 113 645
e 113 320
e 115 661
e 115 338
e 115 242
e 115 945
e 115 692
e 115 164
e 117 783
e 117 558
e 117 734
e 117 411
e 117 434
e 117 257
e 117 663
e 119 276
e 119 394
e 119 192
e 119 264
e 120 121
e 120 415
e 120 927
e 120 647
e 120 836
e 120 318
e 120 582
e 121 304
e 121 273
e 121 609
e 122 563
e 122 220
e 122 704
e 123 575
e 123 424
e 123 240
e 123 507
e 123 914
e 124 794
e 124 722
e 124 535
e 124 840
e 124 476
e 127 301
e 127 530
e 127 446
e 127 351
e 127 192
e 128 857
e 128 639
e 128 280
e 129 360
e 129 901
e 131 221
e 131 949
e 131 525
e 131 830
e 131 889
e 132 940
e 132 389
e 132 637
e 133 236
e 133 607
e 133 620
e 134 733
e 134 387
e 135 298
e 135 764
e 137 707
e 137 749
e 137 628
e 138 517
e 138 758
e 138 220
e 139 942
e 139 749
e 139 389
e 139 361
e 143 315
e 143 220
e 143 897
e 143 485
e 143 852
e 143 737
e 143 995
e 144 276
e 144 321
e 144 616
e 145 205
e 145 384
e 145 255
e 145 251
e 145 993
e 147 594
e 147 163
e 147 446
e 148 291
e 148 646
e 148 336
e 148 442
e 148 676
e 149 764
e 152 371
e 152 707
e 152 285
e 154 300
e 154 288
e 154 455
e 154 902
e 155 596
e 155 684
e 155 614
e 155 764
e 157 474
e 157 506
e 157 606
e 158 294
e 158 402
e 158 997
e 158 279
e 160 799
e 160 468
e 160 163
e 160 304
e 160 828
e 160 602
e 160 222
e 160 439
e 161 240
e 161 550
e 161 268
e 163 439
e 163 949
e 163 358
e 164 597
e 164 379
e 164 553
e 165 598
e 165 202
e 165 574
e 165 667
e 166 448
e 166 195
e 166 849
e 166 898
e 167 673
e 169 333
e 169 340
e 169 221
e 169 552
e 169 760
e 169 857
e 169 754
e 170 302
e 170 639
e 170 295
e 170 889
e 171 507
e 171 511
e 171 393
e 171 466
e 171 309
e 172 755
e 172 699
e 172 594
e 172 294
e 172 184
e 174 999
e 174 651
e 174 513
e 174 225
e 174 521
e 177 209
e 177 201
e 177 355
e 179 401
e 179 914
e 181 522
e 181 876
e 181 306
e 181 583
e 182 634
e 182 492
e 183 796
e 183 489
e 183 818
e 183 885
e 183 941
e 183 511
e 183 806
e 184 304
e 184 423
e 184 676
e 184 790
e 184 506
e 185 438
e 186 895
e 186 919
e 186 935
e 186 989
e 187 651
e 187 868
e 187 625
e 190 667
e 190 268
e 190 474
e 190 225
e 191 866
e 191 607
e 191 247
e 191 660
e 191 375
e 191 767
e 192 417
e 192 560
e 193 532
e 193 695
e 193 225
e 193 886
e 193 246
e 194 416
e 194 968
e 194 763
e 194 799
e 195 241
e 195 796
e 195 649
e 195 926
e 196 645
e 196 796
e 196 874
e 197 266
e 197 572
e 197 408
e 197 335
e 199 392
e 199 297
e 199 952
e 199 835
e 199 739
e 200 334
e 200 297
e 200 620
e 200 548
e 200 262
e 200 799
e 201 988
e 201 897
e 202 724
e 202 255
e 202 943
e 202 547
e 202 256
e 204 780
e 204 757
e 204 350
e 204 579
e 205 556
e 205 919
e 205 928
e 207 913
e 207 364
e 207 640
e 207 350
e 207 302
e 209 324
e 209 563
e 209 629
e 209 983
e 209 308
e 209 913
e 210 913
e 210 484
e 211 296
e 211 649
e 211 258
e 211 348
e 212 655
e 212 546
e 212 781
e 212 469
e 212 670
e 212 693
e 212 703
e 212 685
e 213 256
e 213 927
e 213 369
e 213 308
e 213 551
e 214 298
e 214 420
e 214 385
e 214 553
e 214 537
e 216 882
e 216 321
e 216 905
e 216 675
e 217 778
e 217 868
e 217 481
e 217 590
e 217 844
e 218 577
e 218 760
e 219 814
e 219 267
e 219 827
e 220 819
e 220 947
e 220 664
e 221 953
e 221 639
e 222 854
e 222 849
e 222 858
e 223 369
e 223 533
e 223 268
e 223 704
e 223 236
e 223 778
e 224 572
e 224 841
e 224 536
e 225 590
e 225 761
e 225 307
e 225 650
e 225 739
e 226 384
e 226 701
e 226 323
e 227 575
e 227 487
e 227 530
e 227 449
e 228 369
e 228 928
e 228 453
e 228 701
e 228 248
e 230 438
e 230 781
e 230 462
e 230 599
e 230 251
e 232 516
e 232 656
e 232 239
e 233 936
e 233 390
e 233 659
e 233 942
e 235 982
e 235 983
e 235 695
e 236 725
e 236 661
e 236 609
e 237 461
e 237 967
e 237 678
e 237 493
e 237 395
e 238 942
e 238 437
e 239 270
e 239 705
e 240 332
e 240 698
e 241 264
e 241 773
e 241 559
e 241 571
e 242 405
e 242 893
e 243 807
e 243 536
e 243 321
e 244 484
e 244 834
e 244 523
e 245 605
e 245 541
e 245 871
e 246 761
e 246 952
e 246 998
e 246 885
e 246 828
e 247 782
e 247 663
e 247 524
e 247 843
e 248 495
e 248 352
e 248 277
e 248 258
e 250 863
e 250 493
e 250 360
e 250 313
e 250 636
e 250 306
e 251 688
e 251 577
e 252 936
e 252 674
e 252 630
e 252 849
e 252 296
e 254 398
e 254 509
e 254 931
e 254 912
e 255 274
e 255 896
e 255 813
e 255 463
e 255 489
e 256 800
e 256 693
e 256 997
e 256 323
e 257 340
e 257 467
e 257 700
e 257 448
e 257 278
e 257 531
e 257 653
e 257 495
e 258 313
e 258 983
e 258 765
e 260 579
e 260 437
e 260 835
e 260 625
e 260 634
e 261 665
e 261 574
e 261 304
e 261 275
e 261 941
e 261 526
e 262 536
e 262 840
e 263 628
e 263 460
e 263 304
e 263 771
e 264 803
e 264 976
e 264 789
e 264 981
e 264 528
e 264 763
e 264 266
e 266 463
e 266 981
e 266 705
e 266 461
e 267 381
e 267 571
e 268 765
e 270 817
e 270 789
e 270 484
e 270 485
e 270 584
e 272 778
e 272 390
e 272 584
e 272 410
e 272 758
e 273 936
e 273 364
e 273 903
e 273 925
e 274 294
e 274 977
e 275 706
e 275 966
e 276 916
e 276 995
e 276 945
e 276 605
e 276 384
e 276 568
e 276 915
e 276 999
e 277 416
e 277 824
e 277 333
e 278 285
e 278 990
e 279 630
e 279 378
e 279 615
e 279 410
e 279 659
e 280 913
e 280 807
e 280 510
e 280 677
e 281 580
e 281 661
e 281 407
e 282 595
e 282 839
e 282 294
e 283 544
e 283 790
e 283 650
e 285 820
e 285 442
e 285 927
e 285 913
e 285 702
e 286 780
e 286 297
e 287 421
e 287 681
e 287 520
e 287 700
e 288 845
e 288 422
e 288 539
e 289 768
e 290 417
e 290 334
e 290 421
e 291 835
e 291 427
e 291 390
e 292 844
e 292 731
e 294 807
e 294 900
e 295 834
e 295 589
e 296 816
e 296 420
e 297 401
e 297 765
e 297 583
e 297 885
e 298 915
e 298 328
e 298 891
e 300 673
e 300 779
e 300 765
e 301 751
e 301 944
e 302 718
e 302 974
e 302 655
e 302 992
e 304 421
e 304 974
e 304 720
e 304 694
e 306 455
e 306 351
e 306 803
e 306 443
e 307 602
e 307 678
e 307 892
e 308 601
e 309 994
e 309 958
e 311 663
e 311 580
e 311 808
e 311 648
e 311 992
e 313 525
e 313 402
e 313 346
e 315 613
e 315 576
e 318 901
e 318 333
e 318 864
e 318 517
e 319 673
e 319 401
e 320 754
e 320 555
e 321 809
e 321 844
e 322 768
e 322 405
e 322 601
e 322 712
e 322 644
e 323 519
e 323 946
e 323 577
e 324 820
e 324 369
e 324 983
e 325 543
e 325 897
e 325 372
e 326 445
e 326 812
e 327 830
e 327 857
e 327 563
e 327 883
e 328 391
e 328 659
e 328 421
e 329 694
e 329 996
e 329 845
e 329 751
e 331 532
e 331 644
e 331 388
e 332 965
e 333 848
e 333 595
e 334 716
e 334 655
e 334 450
e 335 761
e 335 899
e 335 690
e 335 771
e 335 693
e 335 919
e 335 615
e 336 410
e 336 452
e 337 450
e 337 481
e 338 993
e 338 573
e 338 370
e 339 446
e 339 815
e 339 379
e 340 861
e 340 593
e 342 653
e 342 582
e 342 838
e 342 989
e 346 443
e 346 856
e 348 923
e 348 968
e 348 485
e 348 350
e 349 902
e 349 734
e 349 370
e 351 943
e 351 475
e 351 782
e 352 816
e 352 596
e 352 928
e 355 400
e 355 566
e 355 791
e 355 632
e 357 377
e 357 657
e 358 723
e 358 890
e 358 932
e 358 813
e 358 518
e 358 571
e 360 787
e 360 578
e 360 966
e 361 883
e 361 368
e 362 640
e 362 636
e 363 747
e 363 625
e 363 688
e 363 945
e 363 628
e 363 474
e 363 527
e 363 469
e 364 603
e 368 559
e 368 554
e 368 925
e 368 830
e 369 410
e 369 483
e 369 584
e 369 915
e 369 375
e 369 669
e 369 622
e 370 629
e 370 600
e 370 663
e 370 969
e 370 501
e 370 528
e 370 716
e 371 947
e 371 583
e 371 936
e 372 653
e 373 982
e 373 421
e 373 935
e 375 584
e 375 489
e 375 737
e 375 908
e 375 657
e 376 394
e 376 438
e 376 424
e 376 720
e 376 815
e 377 805
e 378 685
e 378 840
e 379 972
e 381 474
e 381 769
e 381 631
e 383 972
e 383 515
e 384 505
e 387 788
e 387 451
e 388 451
e 388 627
e 388 663
e 389 573
e 390 443
e 390 531
e 390 653
e 390 928
e 391 891
e 391 412
e 391 990
e 392 705
e 392 455
e 393 987
e 393 679
e 393 743
e 393 450
e 394 897
e 394 722
e 394 653
e 395 910
e 395 793
e 395 424
e 395 861
e 395 400
e 398 507
e 398 574
e 398 823
e 400 913
e 401 599
e 401 449
e 403 818
e 403 772
e 403 812
e 403 476
e 403 845
e 405 854
e 406 560
e 406 866
e 407 510
e 407 489
e 408 639
e 408 471
e 408 718
e 408 833
e 410 823
e 410 594
e 410 460
e 411 617
e 412 692
e 412 617
e 412 894
e 412 673
e 412 656
e 413 949
e 413 924
e 413 576
e 413 476
e 413 974
e 414 554
e 414 637
e 414 866
e 414 792
e 415 724
e 415 695
e 415 516
e 415 596
e 415 983
e 415 870
e 416 936
e 416 727
e 417 819
e 417 704
e 418 783
e 418 979
e 419 776
e 419 461
e 419 754
e 420 567
e 421 621
e 422 451
e 422 998
e 422 764
e 422 803
e 423 456
e 423 694
e 423 752
e 424 910
e 424 559
e 424 782
e 427 982
e 427 939
e 428 867
e 428 444
e 428 781
e 431 893
e 431 840
e 432 797
e 432 779
e 432 913
e 432 804
e 432 631
e 432 447
e 433 876
e 433 791
e 434 976
e 434 640
e 437 659
e 437 737
e 437 729
e 438 566
e 438 534
e 439 882
e 439 795
e 442 691
e 442 598
e 442 495
e 442 613
e 443 956
e 443 653
e 443 495
e 444 924
e 444 704
e 444 610
e 445 886
e 445 820
e 446 908
e 447 873
e 447 921
e 447 733
e 448 676
e 448 712
e 448 550
e 449 765
e 450 681
e 450 999
e 450 994
e 450 483
e 450 915
e 450 632
e 450 767
e 451 657
e 452 958
e 452 546
e 453 799
e 453 882
e 453 722
e 454 747
e 454 989
e 454 752
e 454 508
e 455 661
e 460 833
e 460 778
e 460 481
e 461 998
e 462 550
e 462 657
e 462 856
e 463 874
e 463 772
e 464 734
e 464 882
e 464 694
e 464 484
e 464 820
e 466 965
e 466 558
e 466 636
e 466 575
e 467 572
e 467 530
e 467 520
e 468 673
e 468 616
e 469 898
e 469 740
e 469 793
e 469 553
e 471 546
e 475 786
e 476 674
e 476 903
e 479 793
e 479 578
e 479 984
e 479 610
e 481 584
e 483 892
e 484 550
e 485 580
e 485 895
e 486 645
e 486 822
e 486 570
e 486 990
e 486 593
e 486 838
e 487 904
e 487 979
e 487 878
e 487 535
e 488 983
e 488 856
e 489 573
e 489 724
e 489 878
e 490 792
e 490 987
e 490 786
e 492 883
e 492 649
e 493 740
e 495 548
e 495 855
e 495 537
e 495 632
e 495 674
e 495 889
e 496 560
e 496 538
e 496 897
e 496 512
e 496 702
e 501 723
e 501 782
e 503 514
e 505 779
e 505 813
e 505 584
e 505 600
e 506 626
e 506 856
e 506 750
e 506 824
e 507 610
e 507 890
e 508 738
e 508 953
e 508 538
e 508 773
e 509 750
e 510 926
e 510 640
e 511 727
e 511 540
e 511 931
e 512 901
e 512 594
e 512 760
e 512 751
e 512 536
e 513 807
e 513 516
e 514 935
e 514 982
e 514 660
e 515 968
e 515 609
e 517 984
e 518 716
e 518 563
e 519 644
e 519 645
e 519 869
e 522 900
e 523 556
e 523 949
e 524 534
e 524 968
e 525 905
e 525 567
e 525 800
e 526 548
e 526 769
e 526 650
e 527 722
e 527 864
e 527 923
e 528 532
e 528 683
e 530 908
e 531 898
e 531 778
e 531 678
e 532 586
e 532 863
e 533 892
e 534 786
e 534 667
e 534 544
e 535 617
e 535 929
e 535 828
e 536 894
e 536 734
e 537 899
e 537 988
e 537 631
e 537 626
e 538 599
e 538 586
e 539 889
e 539 789
e 540 935
e 540 941
e 540 890
e 540 670
e 541 942
e 543 606
e 543 925
e 543 813
e 543 704
e 544 629
e 546 604
e 546 648
e 546 623
e 547 754
e 548 602
e 550 956
e 551 809
e 551 995
e 551 607
e 551 894
e 551 776
e 552 670
e 553 818
e 553 931
e 554 810
e 555 698
e 555 561
e 556 944
e 556 636
e 558 871
e 558 904
e 558 605
e 559 921
e 559 740
e 560 914
e 561 852
e 561 707
e 561 923
e 563 575
e 564 999
e 564 627
e 564 646
e 566 763
e 566 783
e 567 873
e 567 628
e 567 833
e 568 911
e 568 724
e 568 691
e 569 724
e 569 996
e 569 923
e 569 866
e 570 721
e 571 876
e 571 632
e 571 626
e 572 687
e 572 830
e 573 928
e 573 781
e 574 663
e 575 894
e 575 738
e 576 791
e 576 932
e 576 968
e 577 861
e 578 913
e 578 775
e 578 617
e 579 977
e 579 849
e 579 761
e 580 755
e 580 707
e 582 593
e 583 877
e 583 995
e 586 656
e 587 699
e 587 760
e 587 955
e 589 808
e 590 600
e 590 664
e 593 984
e 594 636
e 596 859
e 596 704
e 596 878
e 597 700
e 597 719
e 598 961
e 598 768
e 601 793
e 602 807
e 603 625
e 603 647
e 604 729
e 604 615
e 604 674
e 606 787
e 606 863
e 606 874
e 607 925
e 607 613
e 607 780
e 607 857
e 609 723
e 609 979
e 610 961
e 610 807
e 613 926
e 614 729
e 614 950
e 615 845
e 615 815
e 616 787
e 617 983
e 620 857
e 620 748
e 620 972
e 621 945
e 622 695
e 622 634
e 623 797
e 623 709
e 623 765
e 625 692
e 626 683
e 627 706
e 627 971
e 628 930
e 628 873
e 628 984
e 628 967
e 630 989
e 632 967
e 632 652
e 632 795
e 632 780
e 632 669
e 634 886
e 636 806
e 636 780
e 637 693
e 637 817
e 637 945
e 637 740
e 639 739
e 639 675
e 639 870
e 639 779
e 644 722
e 645 871
e 645 670
e 645 690
e 646 720
e 647 940
e 647 900
e 648 837
e 648 862
e 649 856
e 649 885
e 649 995
e 650 674
e 650 780
e 651 700
e 651 934
e 651 853
e 652 787
e 652 989
e 652 974
e 653 916
e 655 995
e 656 824
e 657 968
e 657 828
e 657 691
e 657 783
e 660 707
e 661 664
e 661 867
e 663 983
e 664 897
e 664 918
e 665 940
e 665 878
e 665 684
e 667 807
e 669 699
e 670 915
e 670 940
e 673 863
e 675 923
e 675 928
e 676 898
e 676 904
e 676 952
e 677 720
e 679 695
e 679 950
e 681 757
e 681 946
e 681 816
e 681 915
e 683 945
e 684 838
e 684 731
e 684 934
e 685 699
e 685 792
e 687 722
e 687 724
e 688 816
e 688 821
e 690 927
e 690 967
e 691 916
e 691 886
e 692 935
e 692 733
e 693 843
e 695 942
e 697 781
e 697 921
e 698 892
e 698 862
e 698 861
e 699 905
e 699 856
e 700 845
e 701 855
e 702 901
e 703 855
e 704 955
e 704 852
e 705 910
e 705 773
e 706 935
e 706 755
e 706 762
e 709 892
e 709 842
e 712 881
e 716 891
e 718 828
e 718 949
e 719 894
e 719 792
e 721 763
e 721 945
e 723 822
e 723 858
e 724 964
e 725 965
e 725 804
e 725 931
e 725 852
e 727 857
e 731 867
e 733 862
e 734 748
e 734 835
e 735 770
e 735 861
e 735 979
e 735 848
e 737 918
e 738 743
e 743 843
e 747 818
e 749 795
e 749 762
e 750 953
e 751 939
e 752 791
e 754 893
e 755 870
e 755 868
e 757 781
e 758 956
e 758 997
e 758 981
e 761 838
e 761 961
e 762 810
e 763 905
e 763 764
e 765 871
e 767 896
e 767 837
e 767 939
e 768 895
e 768 899
e 769 815
e 770 966
e 770 935
e 771 915
e 771 877
e 775 952
e 775 971
e 776 990
e 778 877
e 779 929
e 780 891
e 783 947
e 783 912
e 783 955
e 787 859
e 787 979
e 787 793
e 788 791
e 789 862
e 790 931
e 791 930
e 795 941
e 800 878
e 800 924
e 803 808
e 804 987
e 804 901
e 805 813
e 807 808
e 809 959
e 812 844
e 812 855
e 813 899
e 813 839
e 813 882
e 814 818
e 814 934
e 815 864
e 815 934
e 815 984
e 819 964
e 819 877
e 820 971
e 820 821
e 822 995
e 823 939
e 824 914
e 824 972
e 827 924
e 830 911
e 833 878
e 834 964
e 836 861
e 837 892
e 838 921
e 838 979
e 839 877
e 841 968
e 842 853
e 843 866
e 844 871
e 852 911
e 853 916
e 853 974
e 854 976
e 858 889
e 859 874
e 863 903
e 867 902
e 869 992
e 869 885
e 870 902
e 876 896
e 881 959
e 884 999
e 885 993
e 885 934
e 889 931
e 890 955
e 897 912
e 898 940
e 899 912
e 900 914
e 901 931
e 902 965
e 903 983
e 903 997
e 908 966
e 910 929
e 911 944
e 913 939
e 913 965
e 919 943
e 919 956
e 921 928
e 925 959
e 926 941
e 926 977
e 929 931
e 932 989
e 932 939
e 932 979
e 934 935
e 945 967
e 961 968
e 961 992
e 966 995
e 977 999
e 981 983
e 993 997
